sat
(= |goto_symex::&92;guard#1| true)
(= |goto_symex::&92;guard#2| false)
(= |memory_model::choice_rf_1_4_0_11_T_0| false)
(= |memory_model::choice_rf_1_4_2_5_T_1| false)
(= |memory_model::choice_rf_1_4_3_17_T_2| false)
(= |memory_model::choice_rf_1_4_4_45_T_3| true)
(= |memory_model::choice_rf_2_4_0_11_T_4| true)
(= |memory_model::choice_rf_2_4_1_5_T_5| false)
(= |memory_model::choice_rf_2_4_3_17_T_6| false)
(= |memory_model::choice_rf_2_4_4_45_T_7| false)
(= |memory_model::choice_rf_3_16_0_11_T_8| true)
(= |memory_model::choice_rf_3_16_1_5_T_9| false)
(= |memory_model::choice_rf_3_16_2_5_T_10| false)
(= |memory_model::choice_rf_3_16_4_45_T_11| false)
(= |memory_model::choice_rf_4_44_0_11_T_12| true)
(= |memory_model::choice_rf_4_44_1_5_T_13| false)
(= |memory_model::choice_rf_4_44_2_5_T_14| false)
(= |memory_model::choice_rf_4_44_3_17_T_15| false)
(= |memory_model::choice_rf_0_47_0_9_T_16| false)
(= |memory_model::choice_rf_0_47_0_43_T_17| true)
(= |memory_model::choice_rf_0_52_0_9_T_18| false)
(= |memory_model::choice_rf_0_52_0_43_T_19| false)
(= |memory_model::choice_rf_0_52_0_48_T_20| true)
(= |memory_model::choice_rf_0_57_0_9_T_21| false)
(= |memory_model::choice_rf_0_57_0_43_T_22| false)
(= |memory_model::choice_rf_0_57_0_48_T_23| false)
(= |memory_model::choice_rf_0_57_0_53_T_24| true)
(= |memory_model::choice_rf_0_91_0_21_F_25| false)
(= |memory_model::choice_rf_0_91_1_1_F_26| false)
(= |memory_model::choice_rf_0_91_2_0_F_27| true)
(= |memory_model::choice_rf_0_61_0_12_F_28| false)
(= |memory_model::choice_rf_0_61_1_3_F_29| false)
(= |memory_model::choice_rf_0_61_2_3_F_30| true)
(= |memory_model::choice_rf_0_61_3_15_F_31| false)
(= |memory_model::choice_rf_0_61_4_43_F_32| false)
(= |memory_model::choice_rf_1_2_0_12_F_33| false)
(= |memory_model::choice_rf_1_2_2_3_F_34| false)
(= |memory_model::choice_rf_1_2_3_15_F_35| false)
(= |memory_model::choice_rf_1_2_4_43_F_36| true)
(= |memory_model::choice_rf_2_2_0_12_F_37| false)
(= |memory_model::choice_rf_2_2_1_3_F_38| false)
(= |memory_model::choice_rf_2_2_3_15_F_39| true)
(= |memory_model::choice_rf_2_2_4_43_F_40| false)
(= |memory_model::choice_rf_3_14_0_12_F_41| false)
(= |memory_model::choice_rf_3_14_1_3_F_42| true)
(= |memory_model::choice_rf_3_14_2_3_F_43| false)
(= |memory_model::choice_rf_3_14_4_43_F_44| false)
(= |memory_model::choice_rf_4_42_0_12_F_45| true)
(= |memory_model::choice_rf_4_42_1_3_F_46| false)
(= |memory_model::choice_rf_4_42_2_3_F_47| false)
(= |memory_model::choice_rf_4_42_3_15_F_48| false)
(= |memory_model::choice_rf_0_86_0_13_F_49| false)
(= |memory_model::choice_rf_0_86_4_26_F_50| true)
(= |memory_model::choice_rf_4_24_0_13_F_51| false)
(= |memory_model::choice_rf_0_77_0_14_F_52| false)
(= |memory_model::choice_rf_0_77_4_29_F_53| true)
(= |memory_model::choice_rf_4_27_0_14_F_54| false)
(= |memory_model::choice_rf_4_22_0_15_F_55| false)
(= |memory_model::choice_rf_4_25_0_15_F_56| false)
(= |memory_model::choice_rf_4_25_4_23_F_57| true)
(= |memory_model::choice_rf_4_28_0_16_F_58| true)
(= |memory_model::choice_rf_4_28_1_0_F_59| false)
(= |memory_model::choice_rf_0_63_0_17_F_60| false)
(= |memory_model::choice_rf_0_63_0_62_F_61| true)
(= |memory_model::choice_rf_0_76_0_18_F_62| false)
(= |memory_model::choice_rf_0_104_0_18_F_63| false)
(= |memory_model::choice_rf_0_104_0_93_F_64| true)
(= |memory_model::choice_rf_0_105_0_18_F_65| false)
(= |memory_model::choice_rf_0_105_0_93_F_66| true)
(= |memory_model::choice_rf_0_82_0_22_F_67| false)
(= |memory_model::choice_rf_0_82_2_1_F_68| false)
(= |memory_model::choice_rf_0_82_3_0_F_69| true)
(= |memory_model::choice_rf_0_64_0_23_F_70| false)
(= |memory_model::choice_rf_0_64_3_1_F_71| false)
(= |memory_model::choice_rf_0_64_3_13_F_72| true)
(= |memory_model::choice_rf_0_64_4_41_F_73| false)
(= |memory_model::choice_rf_0_84_0_23_F_74| false)
(= |memory_model::choice_rf_0_84_0_75_F_75| true)
(= |memory_model::choice_rf_0_84_3_1_F_76| false)
(= |memory_model::choice_rf_0_84_3_13_F_77| false)
(= |memory_model::choice_rf_0_84_4_41_F_78| false)
(= |memory_model::choice_rf_3_2_0_23_F_79| false)
(= |memory_model::choice_rf_3_2_0_75_F_80| false)
(= |memory_model::choice_rf_3_2_0_98_F_81| false)
(= |memory_model::choice_rf_3_2_3_1_F_82| false)
(= |memory_model::choice_rf_3_2_4_41_F_83| true)
(= |memory_model::choice_rf_4_31_0_23_F_84| false)
(= |memory_model::choice_rf_4_31_0_75_F_85| false)
(= |memory_model::choice_rf_4_31_0_98_F_86| false)
(= |memory_model::choice_rf_4_31_3_1_F_87| true)
(= |memory_model::choice_rf_4_31_3_13_F_88| false)
(= |memory_model::choice_rf_0_83_0_24_F_89| false)
(= |memory_model::choice_rf_0_81_0_25_F_90| false)
(= |memory_model::choice_rf_0_69_0_26_F_91| true)
(= |memory_model::choice_rf_0_87_0_26_F_92| false)
(= |memory_model::choice_rf_0_87_0_72_F_93| true)
(= |memory_model::choice_rf_4_9_0_26_F_94| true)
(= |memory_model::choice_rf_4_9_0_72_F_95| false)
(= |memory_model::choice_rf_4_9_0_94_F_96| false)
(= |memory_model::choice_rf_4_7_0_27_F_97| true)
(= |memory_model::choice_rf_4_5_0_28_F_98| true)
(= |memory_model::choice_rf_3_7_0_29_F_99| true)
(= |memory_model::choice_rf_4_3_0_29_F_100| true)
(= |memory_model::choice_rf_4_3_3_10_F_101| false)
(= |memory_model::choice_rf_4_1_0_30_F_102| true)
(= |memory_model::choice_rf_4_35_0_30_F_103| false)
(= |memory_model::choice_rf_4_35_4_12_F_104| true)
(= |memory_model::choice_rf_0_66_0_31_F_105| false)
(= |memory_model::choice_rf_0_66_4_16_F_106| true)
(= |memory_model::choice_rf_0_88_0_31_F_107| false)
(= |memory_model::choice_rf_0_88_0_71_F_108| true)
(= |memory_model::choice_rf_0_88_4_16_F_109| false)
(= |memory_model::choice_rf_4_8_0_31_F_110| false)
(= |memory_model::choice_rf_4_8_0_71_F_111| false)
(= |memory_model::choice_rf_4_8_0_92_F_112| false)
(= |memory_model::choice_rf_4_6_0_32_F_113| false)
(= |memory_model::choice_rf_4_4_0_33_F_114| false)
(= |memory_model::choice_rf_3_4_0_34_F_115| false)
(= |memory_model::choice_rf_3_4_4_13_F_116| true)
(= |memory_model::choice_rf_4_2_0_34_F_117| false)
(= |memory_model::choice_rf_4_2_3_9_F_118| false)
(= |memory_model::choice_rf_4_0_0_35_F_119| false)
(= |memory_model::choice_rf_4_32_0_35_F_120| false)
(= |memory_model::choice_rf_4_32_4_17_F_121| true)
(= |memory_model::choice_rf_0_68_0_38_F_122| false)
(= |memory_model::choice_rf_0_68_4_20_F_123| true)
(= |memory_model::choice_rf_0_89_0_38_F_124| false)
(= |memory_model::choice_rf_0_89_4_20_F_125| true)
(= |memory_model::choice_rf_3_6_0_38_F_126| false)
(= |memory_model::choice_rf_3_6_0_97_F_127| false)
(= |memory_model::choice_rf_3_6_4_20_F_128| true)
(= |memory_model::choice_rf_4_11_0_38_F_129| true)
(= |memory_model::choice_rf_4_11_0_97_F_130| false)
(= |memory_model::choice_rf_4_34_0_38_F_131| false)
(= |memory_model::choice_rf_4_34_0_97_F_132| false)
(= |memory_model::choice_rf_4_34_4_20_F_133| true)
(= |memory_model::choice_rf_0_70_0_39_F_134| false)
(= |memory_model::choice_rf_0_70_3_12_F_135| true)
(= |memory_model::choice_rf_0_70_4_18_F_136| false)
(= |memory_model::choice_rf_0_70_4_40_F_137| false)
(= |memory_model::choice_rf_0_85_0_39_F_138| false)
(= |memory_model::choice_rf_0_85_0_74_F_139| true)
(= |memory_model::choice_rf_0_85_3_12_F_140| false)
(= |memory_model::choice_rf_0_85_4_18_F_141| false)
(= |memory_model::choice_rf_0_85_4_40_F_142| false)
(= |memory_model::choice_rf_3_8_0_39_F_143| false)
(= |memory_model::choice_rf_3_8_0_74_F_144| false)
(= |memory_model::choice_rf_3_8_0_95_F_145| false)
(= |memory_model::choice_rf_3_8_4_18_F_146| false)
(= |memory_model::choice_rf_3_8_4_40_F_147| true)
(= |memory_model::choice_rf_4_10_0_39_F_148| true)
(= |memory_model::choice_rf_4_10_0_74_F_149| false)
(= |memory_model::choice_rf_4_10_0_95_F_150| false)
(= |memory_model::choice_rf_4_10_3_12_F_151| false)
(= |memory_model::choice_rf_4_36_0_39_F_152| false)
(= |memory_model::choice_rf_4_36_0_74_F_153| false)
(= |memory_model::choice_rf_4_36_0_95_F_154| false)
(= |memory_model::choice_rf_4_36_3_12_F_155| false)
(= |memory_model::choice_rf_4_36_4_18_F_156| true)
(= |memory_model::choice_rf_0_65_0_40_F_157| false)
(= |memory_model::choice_rf_0_65_4_21_F_158| true)
(= |memory_model::choice_rf_0_90_0_40_F_159| false)
(= |memory_model::choice_rf_0_90_4_21_F_160| true)
(= |memory_model::choice_rf_3_3_0_40_F_161| false)
(= |memory_model::choice_rf_3_3_0_96_F_162| false)
(= |memory_model::choice_rf_3_3_4_21_F_163| true)
(= |memory_model::choice_rf_4_30_0_40_F_164| false)
(= |memory_model::choice_rf_4_30_0_96_F_165| false)
(= |memory_model::choice_rf_4_30_4_21_F_166| true)
(= |memory_model::choice_rf_0_67_0_41_F_167| false)
(= |memory_model::choice_rf_0_67_3_11_F_168| true)
(= |memory_model::choice_rf_0_67_4_19_F_169| false)
(= |memory_model::choice_rf_0_67_4_38_F_170| false)
(= |memory_model::choice_rf_0_79_0_41_F_171| false)
(= |memory_model::choice_rf_0_79_0_73_F_172| true)
(= |memory_model::choice_rf_0_79_3_11_F_173| false)
(= |memory_model::choice_rf_0_79_4_19_F_174| false)
(= |memory_model::choice_rf_0_79_4_38_F_175| false)
(= |memory_model::choice_rf_3_5_0_41_F_176| false)
(= |memory_model::choice_rf_3_5_0_73_F_177| false)
(= |memory_model::choice_rf_3_5_0_102_F_178| false)
(= |memory_model::choice_rf_3_5_4_19_F_179| false)
(= |memory_model::choice_rf_3_5_4_38_F_180| true)
(= |memory_model::choice_rf_4_33_0_41_F_181| false)
(= |memory_model::choice_rf_4_33_0_73_F_182| false)
(= |memory_model::choice_rf_4_33_0_102_F_183| false)
(= |memory_model::choice_rf_4_33_3_11_F_184| false)
(= |memory_model::choice_rf_4_33_4_19_F_185| true)
(= |memory_model::choice_rf_0_78_0_19_F_186| false)
(= |memory_model::choice_rf_0_80_0_20_F_187| false)
(= |memory_model::choice_ws-ext_0_11_1_5_T_188| true)
(= |memory_model::choice_ws-ext_0_11_2_5_T_189| true)
(= |memory_model::choice_ws-ext_0_11_3_17_T_190| true)
(= |memory_model::choice_ws-ext_0_11_4_45_T_191| true)
(= |memory_model::choice_ws-ext_1_5_2_5_T_192| false)
(= |memory_model::choice_ws-ext_1_5_3_17_T_193| true)
(= |memory_model::choice_ws-ext_1_5_4_45_T_194| false)
(= |memory_model::choice_ws-ext_2_5_3_17_T_195| true)
(= |memory_model::choice_ws-ext_2_5_4_45_T_196| true)
(= |memory_model::choice_ws-ext_3_17_4_45_T_197| false)
(= |memory_model::choice_ws-ext_0_21_1_1_F_198| true)
(= |memory_model::choice_ws-ext_0_21_2_0_F_199| true)
(= |memory_model::choice_ws-ext_1_1_2_0_F_200| true)
(= |memory_model::choice_ws-ext_0_12_1_3_F_201| true)
(= |memory_model::choice_ws-ext_0_12_2_3_F_202| true)
(= |memory_model::choice_ws-ext_0_12_3_15_F_203| true)
(= |memory_model::choice_ws-ext_0_12_4_43_F_204| true)
(= |memory_model::choice_ws-ext_1_3_2_3_F_205| true)
(= |memory_model::choice_ws-ext_1_3_3_15_F_206| true)
(= |memory_model::choice_ws-ext_1_3_4_43_F_207| false)
(= |memory_model::choice_ws-ext_2_3_3_15_F_208| false)
(= |memory_model::choice_ws-ext_2_3_4_43_F_209| false)
(= |memory_model::choice_ws-ext_3_15_4_43_F_210| false)
(= |memory_model::choice_ws-ext_0_13_4_26_F_211| true)
(= |memory_model::choice_ws-ext_0_14_4_29_F_212| true)
(= |memory_model::choice_ws-ext_0_15_4_23_F_213| true)
(= |memory_model::choice_ws-ext_0_16_1_0_F_214| true)
(= |memory_model::choice_ws-ext_0_22_2_1_F_215| true)
(= |memory_model::choice_ws-ext_0_22_3_0_F_216| true)
(= |memory_model::choice_ws-ext_2_1_3_0_F_217| true)
(= |memory_model::choice_ws-ext_0_23_3_1_F_218| true)
(= |memory_model::choice_ws-ext_0_23_3_13_F_219| true)
(= |memory_model::choice_ws-ext_0_23_4_41_F_220| true)
(= |memory_model::choice_ws-ext_0_75_3_1_F_221| false)
(= |memory_model::choice_ws-ext_0_75_3_13_F_222| false)
(= |memory_model::choice_ws-ext_0_75_4_41_F_223| false)
(= |memory_model::choice_ws-ext_0_98_3_1_F_224| false)
(= |memory_model::choice_ws-ext_0_98_3_13_F_225| false)
(= |memory_model::choice_ws-ext_0_98_4_41_F_226| false)
(= |memory_model::choice_ws-ext_3_1_4_41_F_227| true)
(= |memory_model::choice_ws-ext_3_13_4_41_F_228| false)
(= |memory_model::choice_ws-ext_0_29_3_10_F_229| true)
(= |memory_model::choice_ws-ext_0_30_4_12_F_230| true)
(= |memory_model::choice_ws-ext_0_30_4_37_F_231| true)
(= |memory_model::choice_ws-ext_0_31_4_16_F_232| true)
(= |memory_model::choice_ws-ext_0_71_4_16_F_233| false)
(= |memory_model::choice_ws-ext_0_92_4_16_F_234| false)
(= |memory_model::choice_ws-ext_0_32_4_15_F_235| true)
(= |memory_model::choice_ws-ext_0_33_4_14_F_236| true)
(= |memory_model::choice_ws-ext_0_34_3_9_F_237| true)
(= |memory_model::choice_ws-ext_0_34_4_13_F_238| true)
(= |memory_model::choice_ws-ext_3_9_4_13_F_239| false)
(= |memory_model::choice_ws-ext_0_35_4_17_F_240| true)
(= |memory_model::choice_ws-ext_0_35_4_39_F_241| true)
(= |memory_model::choice_ws-ext_0_38_4_20_F_242| true)
(= |memory_model::choice_ws-ext_0_97_4_20_F_243| false)
(= |memory_model::choice_ws-ext_0_39_3_12_F_244| true)
(= |memory_model::choice_ws-ext_0_39_4_18_F_245| true)
(= |memory_model::choice_ws-ext_0_39_4_40_F_246| true)
(= |memory_model::choice_ws-ext_0_74_3_12_F_247| false)
(= |memory_model::choice_ws-ext_0_74_4_18_F_248| false)
(= |memory_model::choice_ws-ext_0_74_4_40_F_249| false)
(= |memory_model::choice_ws-ext_0_95_3_12_F_250| false)
(= |memory_model::choice_ws-ext_0_95_4_18_F_251| false)
(= |memory_model::choice_ws-ext_0_95_4_40_F_252| false)
(= |memory_model::choice_ws-ext_3_12_4_18_F_253| false)
(= |memory_model::choice_ws-ext_3_12_4_40_F_254| false)
(= |memory_model::choice_ws-ext_0_40_4_21_F_255| true)
(= |memory_model::choice_ws-ext_0_96_4_21_F_256| false)
(= |memory_model::choice_ws-ext_0_41_3_11_F_257| true)
(= |memory_model::choice_ws-ext_0_41_4_19_F_258| true)
(= |memory_model::choice_ws-ext_0_41_4_38_F_259| true)
(= |memory_model::choice_ws-ext_0_73_3_11_F_260| false)
(= |memory_model::choice_ws-ext_0_73_4_19_F_261| false)
(= |memory_model::choice_ws-ext_0_73_4_38_F_262| false)
(= |memory_model::choice_ws-ext_0_102_3_11_F_263| false)
(= |memory_model::choice_ws-ext_0_102_4_19_F_264| false)
(= |memory_model::choice_ws-ext_0_102_4_38_F_265| false)
(= |memory_model::choice_ws-ext_3_11_4_19_F_266| false)
(= |memory_model::choice_ws-ext_3_11_4_38_F_267| false)
(= |main$tmp_guard0#3| #b00000001)
(= |__CPROVER_next_thread_id#3| #b00000000000000000000000000000001)
(= |__CPROVER_next_thread_id#6| #b00000000000000000000000000000010)
(= |__CPROVER_next_thread_id#9| #b00000000000000000000000000000011)
(= |__unbuffered_cnt#2| #b00000000000000000000000000000100)
(= |z$w_buff0_used#2| #b00000000)
(= |z$r_buff0_thd0#2| #b00000000)
(= |z$w_buff0#2| #b00000000000000000000000000000010)
(= |z$w_buff1_used#2| #b00000000)
(= |z$r_buff1_thd0#2| #b00000000)
(= |z$w_buff1#2| #b00000000000000000000000000000000)
(= |z#2| #b00000000000000000000000000000010)
(= |z#4| #b00000000000000000000000000000010)
(= |z$w_buff0_used#6| #b00000000)
(= |z$w_buff1_used#6| #b00000000)
(= |z$r_buff0_thd0#8| #b00000000)
(= |z$r_buff1_thd0#7| #b00000000)
(= |nondet_symex::nondet0| #b00000000000000000000000000000000)
(= |weak$$choice0#2| #b00000000)
(= |weak$$choice0#3| #b10000000)
(= |nondet_symex::nondet1| #b00000000000000000000000000000000)
(= |weak$$choice2#2| #b00000000)
(= |weak$$choice2#3| #b10000000)
(= |z$flush_delayed#2| #b00000000)
(= |z$flush_delayed#3| #b10000000)
(= |z#6| #b00000000000000000000000000000010)
(= |z$mem_tmp#2| #b00000000000000000000000000000010)
(= |z$mem_tmp#3| #b10000000000000000000000000000000)
(= |z$w_buff0_used#11| #b00000000)
(= |z$r_buff0_thd0#11| #b00000000)
(= |z$w_buff1_used#9| #b00000000)
(= |z$r_buff1_thd0#9| #b00000000)
(= |z$w_buff0#4| #b00000000000000000000000000000010)
(= |z$w_buff1#4| #b00000000000000000000000000000000)
(= |z#9| #b00000000000000000000000000000010)
(= |z$w_buff0#10| #b00000000000000000000000000000010)
(= |z$w_buff1#10| #b00000000000000000000000000000000)
(= |z$w_buff0_used#23| #b00000000)
(= |z$w_buff1_used#17| #b00000000)
(= |z$r_buff0_thd0#33| #b00000000)
(= |z$r_buff1_thd0#19| #b00000000)
(= |x#2| #b00000000000000000000000000000010)
(= |y#2| #b00000000000000000000000000000010)
(= |__unbuffered_p3_EAX#2| #b00000000000000000000000000000001)
(= |__unbuffered_p3_EBX#2| #b00000000000000000000000000000000)
(= |main$tmp_guard1#2| #b00000000)
(= |main$tmp_guard1#3| #b10000000)
(= |z#13| #b00000000000000000000000000000010)
(= |z$flush_delayed#6| #b00000000)
(= |main$tmp_guard1#6| #b00000000)
(= |pthread_create::1::this_thread_id!1@0#0| #b01000000000000000000000000000000)
(= |__unbuffered_cnt#4| #b00000000000000000000000000000001)
(= |pthread_create::1::this_thread_id!2@0#0| #b00000000000000000000000000000000)
(= |__unbuffered_cnt#7| #b00000000000000000000000000000011)
(= |pthread_create::1::this_thread_id!3@0#0| #b10000000000000000000000000000000)
(= |z$w_buff0_used#31| #b00000000)
(= |z$r_buff0_thd3#2| #b00000000)
(= |z$w_buff0#12| #b00000000000000000000000000000010)
(= |z$w_buff1_used#21| #b00000000)
(= |z$r_buff1_thd3#2| #b00000000)
(= |z$w_buff1#12| #b00000000000000000000000000000000)
(= |z#16| #b00000000000000000000000000000010)
(= |__unbuffered_cnt#10| #b00000000000000000000000000000010)
(= |pthread_create::1::this_thread_id!4@0#0| #b10000000000000000000000000000000)
(= |z$w_buff0#14| #b00000000000000000000000000000000)
(= |z$w_buff0_used#34| #b00000000)
(= |z$r_buff0_thd0#38| #b00000000)
(= |z$r_buff1_thd0#21| #b00000000)
(= |z$r_buff1_thd0#22| #b00000000)
(= |z$r_buff0_thd1#2| #b00000000)
(= |z$r_buff1_thd1#2| #b00000000)
(= |z$r_buff1_thd1#3| #b10000000)
(= |z$r_buff0_thd2#2| #b00000000)
(= |z$r_buff1_thd2#2| #b00000000)
(= |z$r_buff1_thd2#3| #b10000000)
(= |z$r_buff0_thd3#5| #b00000000)
(= |z$r_buff1_thd3#5| #b00000000)
(= |z$r_buff1_thd3#6| #b10000000)
(= |z$r_buff0_thd4#2| #b00000000)
(= |z$r_buff1_thd4#2| #b00000000)
(= |z$r_buff1_thd4#3| #b10000000)
(= |z$r_buff0_thd4#4| #b00000001)
(= |a#2| #b00000000000000000000000000000001)
(= |a#3| #b10000000000000000000000000000000)
(= |a#5| #b00000000000000000000000000000001)
(= |__unbuffered_p3_EAX#4| #b00000000000000000000000000000001)
(= |__unbuffered_p3_EAX#5| #b10000000000000000000000000000000)
(= |b#3| #b00000000000000000000000000000000)
(= |__unbuffered_p3_EBX#4| #b00000000000000000000000000000000)
(= |__unbuffered_p3_EBX#5| #b10000000000000000000000000000000)
(= |z$w_buff0_used#37| #b00000001)
(= |z$r_buff0_thd4#6| #b00000001)
(= |z$w_buff0#17| #b00000000000000000000000000000010)
(= |z$w_buff1_used#25| #b00000000)
(= |z$r_buff1_thd4#5| #b00000000)
(= |z$w_buff1#15| #b00000000000000000000000000000000)
(= |z#19| #b00000000000000000000000000000001)
(= |z#21| #b00000000000000000000000000000010)
(= |z$w_buff0_used#41| #b00000000)
(= |z$w_buff1_used#29| #b00000000)
(= |z$r_buff0_thd4#12| #b00000001)
(= |z$r_buff1_thd4#10| #b00000000)
(= |__unbuffered_cnt#13| #b00000000000000000000000000000000)
(= |__unbuffered_cnt#15| #b00000000000000000000000000000001)
(= |__CPROVER_threads_exited#1$wclk$8| #b00001011)
(= |__CPROVER_threads_exited#2$rclk$8| #b11111101)
(= |__CPROVER_threads_exited#5$wclk$8| #b11111011)
(= |__CPROVER_threads_exited#7$wclk$8| #b11111111)
(= |__CPROVER_threads_exited#9$wclk$8| #b11111100)
(= |__CPROVER_threads_exited#4$rclk$8| #b11111010)
(= |__CPROVER_threads_exited#3$wclk$8| #b11111110)
(= |__CPROVER_threads_exited#6$rclk$8| #b11111010)
(= |__CPROVER_threads_exited#8$rclk$8| #b10111111)
(= |x#4$wclk$8| #b01111000)
(= |x#2$rclk$8| #b11111101)
(= |x#5$wclk$8| #b01111001)
(= |__unbuffered_cnt#6$wclk$8| #b10111001)
(= |__unbuffered_cnt#2$rclk$8| #b11111010)
(= |__unbuffered_cnt#9$wclk$8| #b11111001)
(= |__unbuffered_cnt#12$wclk$8| #b11111000)
(= |__unbuffered_cnt#16$wclk$8| #b01111111)
(= |__unbuffered_cnt#1$wclk$8| #b00001110)
(= |__unbuffered_cnt#4$rclk$8| #b10111001)
(= |__unbuffered_cnt#7$rclk$8| #b11111001)
(= |__unbuffered_cnt#10$rclk$8| #b11111000)
(= |__unbuffered_cnt#13$rclk$8| #b01111111)
(= |__unbuffered_p3_EAX#6$wclk$8| #b01110101)
(= |__unbuffered_p3_EAX#2$rclk$8| #b11111101)
(= |__unbuffered_p3_EAX#1$wclk$8| #b00001111)
(= |__unbuffered_p3_EAX#5$rclk$8| #b01110101)
(= |__unbuffered_p3_EBX#6$wclk$8| #b01110110)
(= |__unbuffered_p3_EBX#2$rclk$8| #b11111101)
(= |__unbuffered_p3_EBX#1$wclk$8| #b00010000)
(= |__unbuffered_p3_EBX#5$rclk$8| #b01110110)
(= |a#1$wclk$8| #b00010001)
(= |a#3$rclk$8| #b01110100)
(= |a#5$rclk$8| #b01110101)
(= |b#1$wclk$8| #b00010010)
(= |b#3$rclk$8| #b01110110)
(= |b#2$wclk$8| #b01110111)
(= |main$tmp_guard1#5| #b00000000)
(= |y#4$wclk$8| #b01111010)
(= |y#2$rclk$8| #b11111101)
(= |y#5$wclk$8| #b01111011)
(= |z#15$wclk$8| #b01111100)
(= |z#2$rclk$8| #b11111100)
(= |z#18$wclk$8| #b10111101)
(= |z#22$wclk$8| #b01111101)
(= |z#6$rclk$8| #b11111101)
(= |z#1$wclk$8| #b00011001)
(= |z#16$rclk$8| #b10111101)
(= |z#5$wclk$8| #b11111100)
(= |z#14$wclk$8| #b11111101)
(= |z#19$rclk$8| #b01111101)
(= |z$r_buff0_thd0#1$wclk$8| #b00011100)
(= |z$r_buff0_thd0#38$rclk$8| #b01101111)
(= |z$r_buff0_thd0#10$wclk$8| #b11111100)
(= |z$r_buff0_thd0#37$wclk$8| #b11111101)
(= |z$r_buff0_thd1#1$wclk$8| #b00011101)
(= |z$r_buff0_thd1#2$rclk$8| #b01101111)
(= |z$r_buff0_thd2#1$wclk$8| #b00011110)
(= |z$r_buff0_thd2#2$rclk$8| #b01101111)
(= |z$r_buff0_thd3#1$wclk$8| #b00011111)
(= |z$r_buff0_thd3#2$rclk$8| #b10111101)
(= |z$r_buff0_thd3#5$rclk$8| #b01101111)
(= |z$r_buff0_thd3#4$wclk$8| #b10111101)
(= |z$r_buff0_thd4#1$wclk$8| #b00111000)
(= |z$r_buff0_thd4#2$rclk$8| #b01101111)
(= |z$r_buff0_thd4#6$rclk$8| #b01111101)
(= |z$r_buff1_thd0#23$wclk$8| #b01101111)
(= |z$r_buff1_thd0#2$rclk$8| #b11111100)
(= |z$r_buff1_thd0#9$rclk$8| #b11111101)
(= |z$r_buff1_thd0#1$wclk$8| #b00111001)
(= |z$r_buff1_thd0#22$rclk$8| #b01101111)
(= |z$r_buff1_thd0#8$wclk$8| #b11111100)
(= |z$r_buff1_thd0#20$wclk$8| #b11111101)
(= |z$r_buff1_thd1#1$wclk$8| #b00111010)
(= |z$r_buff1_thd1#3$rclk$8| #b01101111)
(= |z$r_buff1_thd2#1$wclk$8| #b00111011)
(= |z$r_buff1_thd2#3$rclk$8| #b01101111)
(= |z$r_buff1_thd3#1$wclk$8| #b00111100)
(= |z$r_buff1_thd3#2$rclk$8| #b10111101)
(= |z$r_buff1_thd3#7$wclk$8| #b01101111)
(= |z$r_buff1_thd3#6$rclk$8| #b01101111)
(= |z$r_buff1_thd3#4$wclk$8| #b10111101)
(= |z$r_buff1_thd4#1$wclk$8| #b00111101)
(= |z$r_buff1_thd4#3$rclk$8| #b01101111)
(= |z$r_buff1_thd4#5$rclk$8| #b01111101)
(= |z$w_buff0#16$wclk$8| #b01101111)
(= |z$w_buff0#2$rclk$8| #b11111100)
(= |z$w_buff0#4$rclk$8| #b11111101)
(= |z$w_buff0#1$wclk$8| #b01001001)
(= |z$w_buff0#12$rclk$8| #b10111101)
(= |z$w_buff0#11$wclk$8| #b11111101)
(= |z$w_buff0#14$rclk$8| #b01101111)
(= |z$w_buff0#17$rclk$8| #b01111101)
(= |z$w_buff0_used#33$wclk$8| #b10111101)
(= |z$w_buff0_used#2$rclk$8| #b11111100)
(= |z$w_buff0_used#36$wclk$8| #b01101111)
(= |z$w_buff0_used#45$wclk$8| #b01111101)
(= |z$w_buff0_used#11$rclk$8| #b11111101)
(= |z$w_buff0_used#1$wclk$8| #b01001010)
(= |z$w_buff0_used#31$rclk$8| #b10111101)
(= |z$w_buff0_used#10$wclk$8| #b11111100)
(= |z$w_buff0_used#30$wclk$8| #b11111101)
(= |z$w_buff0_used#34$rclk$8| #b01101111)
(= |z$w_buff0_used#37$rclk$8| #b01111101)
(= |z$w_buff1#14$wclk$8| #b01101111)
(= |z$w_buff1#2$rclk$8| #b11111100)
(= |z$w_buff1#4$rclk$8| #b11111101)
(= |z$w_buff1#1$wclk$8| #b01001011)
(= |z$w_buff1#12$rclk$8| #b10111101)
(= |z$w_buff1#11$wclk$8| #b11111101)
(= |z$w_buff1#15$rclk$8| #b01111101)
(= |z$w_buff1_used#23$wclk$8| #b10111101)
(= |z$w_buff1_used#2$rclk$8| #b11111100)
(= |z$w_buff1_used#24$wclk$8| #b01101111)
(= |z$w_buff1_used#31$wclk$8| #b01111101)
(= |z$w_buff1_used#9$rclk$8| #b11111101)
(= |z$w_buff1_used#1$wclk$8| #b01001100)
(= |z$w_buff1_used#21$rclk$8| #b10111101)
(= |z$w_buff1_used#8$wclk$8| #b11111100)
(= |z$w_buff1_used#20$wclk$8| #b11111101)
(= |z$w_buff1_used#25$rclk$8| #b01111101)
(= |x#1$wclk$8| #b00010111)
(= |a#4$wclk$8| #b01110100)
(= |y#1$wclk$8| #b00011000)
(= |z$r_buff0_thd4#5$wclk$8| #b01101111)
(= |z$r_buff0_thd4#14$wclk$8| #b01111101)
(= |z$r_buff1_thd1#4$wclk$8| #b01101111)
(= |z$r_buff1_thd2#4$wclk$8| #b01101111)
(= |z$r_buff1_thd4#4$wclk$8| #b01101111)
(= |z$r_buff1_thd4#11$wclk$8| #b01111101)
(= t1$45$spwnclk$8 #b01010000)
(= t1$50$spwnclk$8 #b01100000)
(= t1$55$spwnclk$8 #b01100111)
(= t1$60$spwnclk$8 #b01101110)
(= |main::1::t1272!0@1$wclk$8| #b00000000)
(= |main::1::t1273!0@1$wclk$8| #b00000001)
(= |main::1::t1274!0@1$wclk$8| #b00000010)
(= |__CPROVER_dead_object#1$wclk$8| #b00000011)
(= |__CPROVER_deallocated#1$wclk$8| #b00000100)
(= |__CPROVER_malloc_is_new_array#1$wclk$8| #b00000101)
(= |__CPROVER_malloc_object#1$wclk$8| #b00000110)
(= |__CPROVER_malloc_size#1$wclk$8| #b00000111)
(= |__CPROVER_memory_leak#1$wclk$8| #b00001000)
(= |__CPROVER_next_thread_id#1$wclk$8| #b00001001)
(= |__CPROVER_pipe_count#1$wclk$8| #b00001010)
(= |main$tmp_guard0#1$wclk$8| #b00010011)
(= |main$tmp_guard1#1$wclk$8| #b00010100)
(= |weak$$choice0#1$wclk$8| #b00010101)
(= |weak$$choice2#1$wclk$8| #b00010110)
(= |z$flush_delayed#1$wclk$8| #b00011010)
(= |z$mem_tmp#1$wclk$8| #b00011011)
(= |z$read_delayed#1$wclk$8| #b00111110)
(= |z$read_delayed_var#1$wclk$8| #b00111111)
(= |main::1::t1271!0@1#1$wclk$8| #b01001101)
(= |__CPROVER_next_thread_id#2$wclk$8| #b01001110)
(= |main::1::t1271!0@1#2$wclk$8| #b01001111)
(= |main::1::t1272!0@1#1$wclk$8| #b01011101)
(= |__CPROVER_next_thread_id#3$rclk$8| #b01011110)
(= |__CPROVER_next_thread_id#5$wclk$8| #b01011110)
(= |main::1::t1272!0@1#2$wclk$8| #b01011111)
(= |main::1::t1273!0@1#1$wclk$8| #b01100001)
(= |__CPROVER_next_thread_id#6$rclk$8| #b01100100)
(= |__CPROVER_next_thread_id#8$wclk$8| #b01100100)
(= |main::1::t1273!0@1#2$wclk$8| #b01100101)
(= |main::1::t1274!0@1#1$wclk$8| #b01101010)
(= |__CPROVER_next_thread_id#9$rclk$8| #b01101100)
(= |__CPROVER_next_thread_id#11$wclk$8| #b01101100)
(= |main::1::t1274!0@1#2$wclk$8| #b01101101)
(= |main$tmp_guard0#2$wclk$8| #b11111010)
(= |main$tmp_guard0#3$rclk$8| #b11111011)
(= |z$r_buff0_thd0#2$rclk$8| #b11111100)
(= |main$tmp_guard1#3$rclk$8| #b11111101)
(= |weak$$choice0#3$rclk$8| #b11111101)
(= |weak$$choice2#3$rclk$8| #b11111101)
(= |z$mem_tmp#3$rclk$8| #b11111101)
(= |z$flush_delayed#3$rclk$8| #b11111101)
(= |z$r_buff0_thd0#11$rclk$8| #b11111101)
(= |main$tmp_guard1#4$wclk$8| #b11111101)
(= |z$flush_delayed#7$wclk$8| #b11111101)
(= |z$mem_tmp#5$wclk$8| #b11111101)
(= |weak$$choice2#11$wclk$8| #b11111101)
(= |weak$$choice0#4$wclk$8| #b11111101)
(= |main$tmp_guard1#5$rclk$8| #b11111110)
(= |main$tmp_guard1#6$rclk$8| #b11111111)
(= array_of.0 @fun_9)
(= |__CPROVER_threads_exited#2| @fun_9)
(= |__CPROVER_threads_exited#4| @fun_9)
(= |__CPROVER_threads_exited#6| @fun_9)
(= |__CPROVER_threads_exited#8| @fun_9)
(function @fun_9
 (type (Array (_ BitVec 32) (_ BitVec 1)))
 (= (@fun_9 #b01000000000000000000000000000000) #b0)
 (default #b1))

real	0m0.028s
user	0m0.028s
sys	0m0.000s
State: AC Run_time: 0.030472278594970703